NAME : amtsp
TYPE : ATSP
DIMENSION : 6
EDGE_WEIGHT_TYPE : EXPLICIT
EDGE_WEIGHT_FORMAT : FULL_MATRIX
EDGE_WEIGHT_SECTION
100000 -100000 100000 100000 100000 100000 
100000 100000 361 388 575 100000 
0 0 100000 215 215 298 
0 0 215 100000 143 378 
0 0 215 143 100000 370 
-100000 100000 298 378 370 100000 
